
Gurobi 7.5.2 (linux64) logging started Sat Jul  7 16:15:57 2018

Changed value of parameter LogFile to result/ilp/simNo_8-n_100-m_40-s_7-minVAF_0.05-cov_10000-k_1-fn_0.25-fp_0.0001-na_0.15.ILP.gurobiSolverLog
   Prev: gurobi.log  Default: 
Changed value of parameter TimeLimit to 86400.0
   Prev: 1e+100  Min: 0.0  Max: 1e+100  Default: 1e+100
Optimize a model with 639293 rows, 10765 columns and 1940420 nonzeros
Variable types: 0 continuous, 10765 integer (10765 binary)
Coefficient statistics:
  Matrix range     [6e-05, 4e+00]
  Objective range  [1e+00, 2e+01]
  Bounds range     [1e+00, 1e+00]
  RHS range        [1e-01, 2e+00]
Found heuristic solution: objective -11451.28293
Presolve removed 139129 rows and 1117 columns (presolve time = 5s) ...
Presolve removed 140656 rows and 1117 columns (presolve time = 14s) ...
Presolve removed 207856 rows and 1789 columns (presolve time = 16s) ...
Presolve removed 207856 rows and 1789 columns (presolve time = 21s) ...
Presolve removed 207856 rows and 1789 columns
Presolve time: 21.14s
Presolved: 431437 rows, 8976 columns, 1296542 nonzeros
Variable types: 0 continuous, 8976 integer (8976 binary)
Presolved: 8976 rows, 440413 columns, 1305518 nonzeros

Presolve removed 8976 rows and 440413 columns

Root simplex log...

Iteration    Objective       Primal Inf.    Dual Inf.      Time
       0    2.2272178e+01   0.000000e+00   5.719800e+04     26s
   23272   -2.8539540e+02   0.000000e+00   8.562932e+04     30s
   43012   -3.4449186e+02   0.000000e+00   4.229411e+04     35s
   50265   -3.5283148e+02   0.000000e+00   0.000000e+00     38s
   50265   -3.5283148e+02   0.000000e+00   0.000000e+00     39s

Root relaxation: objective -3.528315e+02, 50265 iterations, 16.29 seconds
Total elapsed time = 40.14s
Total elapsed time = 83.15s
Total elapsed time = 102.60s
Total elapsed time = 114.67s

    Nodes    |    Current Node    |     Objective Bounds      |     Work
 Expl Unexpl |  Obj  Depth IntInf | Incumbent    BestBd   Gap | It/Node Time

     0     0 -352.83148    0  542 -11451.283 -352.83148  96.9%     -  118s
H    0     0                    -868.8905024 -352.83148  59.4%     -  123s
H    0     0                    -387.7786456 -352.83148  9.01%     -  124s
H    0     0                    -366.7452873 -352.83148  3.79%     -  125s
     0     0 -355.10408    0  523 -366.74529 -355.10408  3.17%     -  192s
     0     0 -356.55709    0  537 -366.74529 -356.55709  2.78%     -  687s
     0     0 -356.75936    0  536 -366.74529 -356.75936  2.72%     -  836s
     0     0 -356.78523    0  552 -366.74529 -356.78523  2.72%     -  873s
     0     0 -356.86196    0  535 -366.74529 -356.86196  2.69%     -  964s
     0     0 -356.90926    0  534 -366.74529 -356.90926  2.68%     - 1208s
     0     0 -356.91967    0 2230 -366.74529 -356.91967  2.68%     - 1349s
     0     0 -356.91967    0 2227 -366.74529 -356.91967  2.68%     - 1356s
     0     0 -357.18224    0  507 -366.74529 -357.18224  2.61%     - 1374s
     0     0 -357.73472    0 2179 -366.74529 -357.73472  2.46%     - 1733s
     0     0 -357.73472    0 2181 -366.74529 -357.73472  2.46%     - 1738s
     0     0 -358.51299    0  374 -366.74529 -358.51299  2.24%     - 2128s
     0     0 -358.51299    0  548 -366.74529 -358.51299  2.24%     - 2295s
     0     0 -358.70237    0  494 -366.74529 -358.70237  2.19%     - 2336s
     0     0 -359.06388    0 2129 -366.74529 -359.06388  2.09%     - 2345s
     0     0 -359.64929    0  414 -366.74529 -359.64929  1.93%     - 2513s
     0     0 -359.64929    0  386 -366.74529 -359.64929  1.93%     - 2516s
     0     0 -360.07246    0  470 -366.74529 -360.07246  1.82%     - 2521s
     0     0 -360.21744    0  366 -366.74529 -360.21744  1.78%     - 2527s
     0     0 -360.21744    0  356 -366.74529 -360.21744  1.78%     - 2529s
     0     0 -360.49798    0  458 -366.74529 -360.49798  1.70%     - 2552s
     0     0 -360.49798    0  497 -366.74529 -360.49798  1.70%     - 2577s
     0     0 -361.01723    0  473 -366.74529 -361.01723  1.56%     - 2580s
     0     0 -361.01723    0  474 -366.74529 -361.01723  1.56%     - 2583s
     0     0 -361.51830    0  266 -366.74529 -361.51830  1.43%     - 2584s
     0     0 -361.53082    0  476 -366.74529 -361.53082  1.42%     - 2585s
     0     0 -361.53082    0  478 -366.74529 -361.53082  1.42%     - 2586s
     0     0 -361.53082    0  475 -366.74529 -361.53082  1.42%     - 2587s
     0     0 -361.63193    0  252 -366.74529 -361.63193  1.39%     - 2588s
     0     0 -361.63193    0  253 -366.74529 -361.63193  1.39%     - 2589s
     0     0 -361.88109    0  484 -366.74529 -361.88109  1.33%     - 2590s
     0     0 -362.20008    0  267 -366.74529 -362.20008  1.24%     - 2590s
     0     0 -362.20008    0  266 -366.74529 -362.20008  1.24%     - 2591s
     0     0 -362.20008    0  245 -366.74529 -362.20008  1.24%     - 2594s
     0     0 -362.20008    0  449 -366.74529 -362.20008  1.24%     - 2599s
     0     0 -362.20008    0  250 -366.74529 -362.20008  1.24%     - 2601s
     0     0 -362.20008    0  248 -366.74529 -362.20008  1.24%     - 2601s
     0     0 -362.20008    0  247 -366.74529 -362.20008  1.24%     - 2602s
     0     0 -362.76823    0  245 -366.74529 -362.76823  1.08%     - 2603s
     0     0 -362.76823    0  376 -366.74529 -362.76823  1.08%     - 2605s
     0     0 -362.76823    0  430 -366.74529 -362.76823  1.08%     - 2605s
     0     0 -362.76823    0  262 -366.74529 -362.76823  1.08%     - 2605s
     0     0 -362.76823    0  253 -366.74529 -362.76823  1.08%     - 2605s
     0     0 -362.76823    0  256 -366.74529 -362.76823  1.08%     - 2606s
     0     0 -363.33638    0  264 -366.74529 -363.33638  0.93%     - 2606s
     0     0 -363.33638    0  265 -366.74529 -363.33638  0.93%     - 2606s
     0     0 -363.33638    0  147 -366.74529 -363.33638  0.93%     - 2606s
     0     0 -363.45475    0  266 -366.74529 -363.45475  0.90%     - 2606s
     0     0 -363.45475    0  266 -366.74529 -363.45475  0.90%     - 2607s
     0     0 -363.51393    0  259 -366.74529 -363.51393  0.88%     - 2607s
     0     0 -363.51393    0  268 -366.74529 -363.51393  0.88%     - 2607s
     0     0 -363.61639    0  306 -366.74529 -363.61639  0.85%     - 2607s
     0     0 -363.65202    0  267 -366.74529 -363.65202  0.84%     - 2607s
     0     0 -363.66104    0  268 -366.74529 -363.66104  0.84%     - 2607s
     0     0 -363.70000    0  275 -366.74529 -363.70000  0.83%     - 2608s
     0     0 -363.70000    0  274 -366.74529 -363.70000  0.83%     - 2608s
     0     0 -363.95547    0  296 -366.74529 -363.95547  0.76%     - 2608s
     0     0 -364.09392    0  257 -366.74529 -364.09392  0.72%     - 2608s
     0     0 -364.09392    0  264 -366.74529 -364.09392  0.72%     - 2608s
     0     0 -364.34825    0  300 -366.74529 -364.34825  0.65%     - 2608s
     0     0 -364.34825    0  301 -366.74529 -364.34825  0.65%     - 2608s
     0     0 -364.51582    0  307 -366.74529 -364.51582  0.61%     - 2609s
     0     0 -364.51839    0  307 -366.74529 -364.51839  0.61%     - 2609s
     0     0 -364.51839    0  308 -366.74529 -364.51839  0.61%     - 2609s
     0     0 -364.61871    0  298 -366.74529 -364.61871  0.58%     - 2609s
     0     0 -364.61876    0  301 -366.74529 -364.61876  0.58%     - 2609s
     0     0 -364.74540    0  263 -366.74529 -364.74540  0.55%     - 2610s
     0     0 -364.77090    0  275 -366.74529 -364.77090  0.54%     - 2610s
     0     0 -364.77979    0  263 -366.74529 -364.77979  0.54%     - 2610s
     0     0 -364.79734    0  263 -366.74529 -364.79734  0.53%     - 2610s
     0     0 -364.80284    0  311 -366.74529 -364.80284  0.53%     - 2610s
     0     0 -364.84198    0  271 -366.74529 -364.84198  0.52%     - 2610s
     0     0 -364.88519    0  306 -366.74529 -364.88519  0.51%     - 2610s
     0     0 -364.89916    0  304 -366.74529 -364.89916  0.50%     - 2611s
     0     0 -364.90451    0  307 -366.74529 -364.90451  0.50%     - 2611s
     0     0 -364.90451    0  309 -366.74529 -364.90451  0.50%     - 2611s
     0     0 -364.90451    0  306 -366.74529 -364.90451  0.50%     - 2611s
     0     0 -364.90451    0  306 -366.74529 -364.90451  0.50%     - 2611s
     0     0 -364.91993    0  305 -366.74529 -364.91993  0.50%     - 2611s
     0     0 -364.92278    0  305 -366.74529 -364.92278  0.50%     - 2611s
     0     0 -364.92278    0  307 -366.74529 -364.92278  0.50%     - 2611s
     0     0 -364.92278    0  309 -366.74529 -364.92278  0.50%     - 2612s
     0     0 -364.92278    0  309 -366.74529 -364.92278  0.50%     - 2612s
     0     0 -364.92278    0  305 -366.74529 -364.92278  0.50%     - 2614s
     0     0 -364.92278    0  349 -366.74529 -364.92278  0.50%     - 2616s
     0     0 -364.92278    0  392 -366.74529 -364.92278  0.50%     - 2616s
     0     0 -364.92278    0  341 -366.74529 -364.92278  0.50%     - 2616s
     0     0 -364.92278    0  340 -366.74529 -364.92278  0.50%     - 2616s
     0     0 -364.92278    0  339 -366.74529 -364.92278  0.50%     - 2616s
     0     0 -364.92278    0  340 -366.74529 -364.92278  0.50%     - 2616s
     0     0 -364.92278    0  341 -366.74529 -364.92278  0.50%     - 2617s
     0     0 -364.92278    0  281 -366.74529 -364.92278  0.50%     - 2617s
     0     0 -364.92286    0  281 -366.74529 -364.92286  0.50%     - 2617s
     0     0 -364.92286    0  281 -366.74529 -364.92286  0.50%     - 2617s
     0     0 -364.96119    0  260 -366.74529 -364.96119  0.49%     - 2617s
     0     0 -364.96119    0  261 -366.74529 -364.96119  0.49%     - 2618s
     0     0 -365.09349    0  276 -366.74529 -365.09349  0.45%     - 2618s
     0     0 -365.09787    0  271 -366.74529 -365.09787  0.45%     - 2618s
     0     0 -365.09787    0  273 -366.74529 -365.09787  0.45%     - 2618s
     0     0 -365.15875    0  259 -366.74529 -365.15875  0.43%     - 2618s
     0     0 -365.16008    0  259 -366.74529 -365.16008  0.43%     - 2618s
     0     0 -365.16314    0  265 -366.74529 -365.16314  0.43%     - 2618s
     0     0 -365.16590    0  259 -366.74529 -365.16590  0.43%     - 2618s
     0     0 -365.19992    0  277 -366.74529 -365.19992  0.42%     - 2619s
     0     0 -365.21304    0  279 -366.74529 -365.21304  0.42%     - 2619s
     0     0 -365.21304    0  279 -366.74529 -365.21304  0.42%     - 2619s
     0     0 -365.21304    0  279 -366.74529 -365.21304  0.42%     - 2619s
     0     0 -365.21304    0  277 -366.74529 -365.21304  0.42%     - 2621s
     0     2 -365.21850    0  276 -366.74529 -365.21850  0.42%     - 2621s

Cutting planes:
  Gomory: 2
  Clique: 62
  MIR: 1
  Zero half: 47

Explored 15 nodes (233420 simplex iterations) in 2622.28 seconds
Thread count was 1 (of 80 available processors)

Solution count 8: -366.745 -366.745 -366.745 ... -11451.3

Optimal solution found (tolerance 1.00e-04)
Best objective -3.667452872617e+02, best bound -3.667452872617e+02, gap 0.0000%
